c CNF
c from Selman's wff generator
p cnf 140  1600
1.0 -33 -119 0
1.0 -129 -72 0
1.0 20 94 0
1.0 1 -47 0
1.0 138 112 0
1.0 -128 -98 0
1.0 67 26 0
1.0 -36 52 0
1.0 31 78 0
1.0 -9 7 0
1.0 -100 -21 0
1.0 68 18 0
1.0 -130 -112 0
1.0 -70 -65 0
1.0 91 -126 0
1.0 37 124 0
1.0 -61 105 0
1.0 -111 -67 0
1.0 88 49 0
1.0 -67 84 0
1.0 56 -24 0
1.0 -89 113 0
1.0 99 -26 0
1.0 10 -80 0
1.0 44 10 0
1.0 -77 98 0
1.0 7 -115 0
1.0 -59 -119 0
1.0 -3 -23 0
1.0 -136 -81 0
1.0 -106 -14 0
1.0 93 -11 0
1.0 21 -47 0
1.0 -4 95 0
1.0 -70 -19 0
1.0 -138 -73 0
1.0 -95 -60 0
1.0 140 -80 0
1.0 -94 133 0
1.0 4 128 0
1.0 -34 54 0
1.0 9 -100 0
1.0 119 -131 0
1.0 -63 27 0
1.0 -86 -66 0
1.0 5 -12 0
1.0 4 133 0
1.0 120 47 0
1.0 100 -10 0
1.0 110 -98 0
1.0 88 112 0
1.0 138 -39 0
1.0 104 -136 0
1.0 7 80 0
1.0 73 71 0
1.0 118 -46 0
1.0 56 116 0
1.0 -73 92 0
1.0 63 37 0
1.0 75 59 0
1.0 54 33 0
1.0 113 74 0
1.0 -4 -86 0
1.0 132 22 0
1.0 -137 104 0
1.0 -55 -45 0
1.0 82 121 0
1.0 39 -42 0
1.0 74 62 0
1.0 -135 -81 0
1.0 -26 47 0
1.0 68 39 0
1.0 -2 137 0
1.0 42 -83 0
1.0 -63 -72 0
1.0 114 53 0
1.0 -115 -64 0
1.0 -5 42 0
1.0 89 88 0
1.0 -127 -112 0
1.0 109 73 0
1.0 -16 -80 0
1.0 12 -132 0
1.0 44 91 0
1.0 -15 123 0
1.0 25 -95 0
1.0 -43 97 0
1.0 69 17 0
1.0 62 47 0
1.0 40 94 0
1.0 -133 -137 0
1.0 -28 93 0
1.0 80 117 0
1.0 -26 -7 0
1.0 135 106 0
1.0 123 87 0
1.0 133 80 0
1.0 34 58 0
1.0 -54 -138 0
1.0 -90 68 0
1.0 44 124 0
1.0 130 -1 0
1.0 107 -101 0
1.0 -47 111 0
1.0 -50 -38 0
1.0 -95 135 0
1.0 -132 -79 0
1.0 -6 39 0
1.0 -23 35 0
1.0 -36 29 0
1.0 -130 44 0
1.0 -14 84 0
1.0 122 -6 0
1.0 -140 -116 0
1.0 -54 33 0
1.0 -72 -44 0
1.0 -79 -87 0
1.0 -115 -104 0
1.0 -8 68 0
1.0 -11 -74 0
1.0 80 -92 0
1.0 -68 -12 0
1.0 45 -4 0
1.0 -48 -8 0
1.0 -94 38 0
1.0 2 77 0
1.0 4 32 0
1.0 106 117 0
1.0 -69 -74 0
1.0 -85 -56 0
1.0 -59 -16 0
1.0 -23 -38 0
1.0 75 -52 0
1.0 -129 -76 0
1.0 108 -118 0
1.0 -94 12 0
1.0 85 102 0
1.0 18 -134 0
1.0 9 125 0
1.0 22 -134 0
1.0 46 52 0
1.0 127 -120 0
1.0 98 31 0
1.0 -42 -5 0
1.0 106 -91 0
1.0 84 -34 0
1.0 -19 101 0
1.0 -95 -131 0
1.0 42 31 0
1.0 -11 -59 0
1.0 90 -10 0
1.0 -14 -92 0
1.0 -42 -133 0
1.0 -26 22 0
1.0 -123 -61 0
1.0 -52 -83 0
1.0 -113 -110 0
1.0 -28 -105 0
1.0 -115 -110 0
1.0 -62 -85 0
1.0 -77 -72 0
1.0 93 -26 0
1.0 86 -92 0
1.0 -34 88 0
1.0 -57 -73 0
1.0 37 82 0
1.0 -52 -28 0
1.0 -112 108 0
1.0 39 -23 0
1.0 49 -17 0
1.0 -109 78 0
1.0 25 -82 0
1.0 14 140 0
1.0 82 -85 0
1.0 -113 -61 0
1.0 -29 40 0
1.0 63 -3 0
1.0 -20 -125 0
1.0 -63 -96 0
1.0 38 140 0
1.0 -139 -53 0
1.0 -138 -23 0
1.0 83 -37 0
1.0 77 -46 0
1.0 -48 96 0
1.0 81 74 0
1.0 -30 44 0
1.0 -43 120 0
1.0 -32 79 0
1.0 -101 54 0
1.0 90 53 0
1.0 98 52 0
1.0 -8 -135 0
1.0 -69 -126 0
1.0 29 -42 0
1.0 -21 3 0
1.0 -81 95 0
1.0 -8 -82 0
1.0 -134 -98 0
1.0 9 97 0
1.0 -28 105 0
1.0 56 -30 0
1.0 -55 114 0
1.0 -87 32 0
1.0 114 38 0
1.0 122 -7 0
1.0 -130 -140 0
1.0 96 -104 0
1.0 -69 -74 0
1.0 -104 37 0
1.0 -10 -60 0
1.0 -91 72 0
1.0 -110 -46 0
1.0 52 28 0
1.0 28 -118 0
1.0 -82 43 0
1.0 -116 -102 0
1.0 -139 74 0
1.0 -134 -32 0
1.0 103 -102 0
1.0 8 128 0
1.0 -15 54 0
1.0 32 -2 0
1.0 -45 132 0
1.0 -93 -115 0
1.0 -49 56 0
1.0 -87 66 0
1.0 -28 134 0
1.0 -121 -7 0
1.0 60 -56 0
1.0 58 -63 0
1.0 -54 45 0
1.0 -19 81 0
1.0 -137 -59 0
1.0 -125 95 0
1.0 88 116 0
1.0 122 1 0
1.0 -57 -102 0
1.0 -24 -56 0
1.0 -100 -58 0
1.0 139 -43 0
1.0 -102 -15 0
1.0 -110 72 0
1.0 -47 3 0
1.0 -4 50 0
1.0 12 63 0
1.0 -118 -110 0
1.0 27 57 0
1.0 100 102 0
1.0 117 -97 0
1.0 28 -102 0
1.0 -105 -128 0
1.0 38 34 0
1.0 -96 -61 0
1.0 31 57 0
1.0 -114 -66 0
1.0 -27 101 0
1.0 -58 -138 0
1.0 100 90 0
1.0 78 -124 0
1.0 17 -59 0
1.0 120 108 0
1.0 24 -55 0
1.0 120 8 0
1.0 109 63 0
1.0 -61 97 0
1.0 -46 -132 0
1.0 -115 98 0
1.0 122 -104 0
1.0 -9 21 0
1.0 87 -110 0
1.0 39 -49 0
1.0 58 89 0
1.0 60 41 0
1.0 124 -43 0
1.0 -1 -18 0
1.0 121 -2 0
1.0 22 -42 0
1.0 12 95 0
1.0 4 126 0
1.0 -75 -32 0
1.0 73 135 0
1.0 38 72 0
1.0 89 4 0
1.0 5 90 0
1.0 -132 111 0
1.0 65 58 0
1.0 -43 -64 0
1.0 -95 65 0
1.0 -60 -17 0
1.0 -89 98 0
1.0 -101 -16 0
1.0 -106 -24 0
1.0 -134 126 0
1.0 -44 -12 0
1.0 75 117 0
1.0 42 -35 0
1.0 52 -1 0
1.0 98 54 0
1.0 70 2 0
1.0 -26 15 0
1.0 -1 91 0
1.0 -102 66 0
1.0 43 -52 0
1.0 87 -124 0
1.0 -124 -104 0
1.0 -18 -34 0
1.0 -36 23 0
1.0 -37 112 0
1.0 -62 19 0
1.0 85 -69 0
1.0 -121 127 0
1.0 110 -116 0
1.0 79 -62 0
1.0 95 -35 0
1.0 57 -24 0
1.0 -136 132 0
1.0 -11 -71 0
1.0 -140 -1 0
1.0 127 -12 0
1.0 127 113 0
1.0 34 -84 0
1.0 -118 65 0
1.0 -89 -30 0
1.0 21 119 0
1.0 -50 82 0
1.0 83 67 0
1.0 78 26 0
1.0 -76 131 0
1.0 -13 -73 0
1.0 51 -32 0
1.0 -20 -109 0
1.0 110 132 0
1.0 -117 98 0
1.0 -127 64 0
1.0 -90 46 0
1.0 36 58 0
1.0 -130 42 0
1.0 -74 -11 0
1.0 -120 -81 0
1.0 72 140 0
1.0 -98 -135 0
1.0 59 71 0
1.0 117 123 0
1.0 40 78 0
1.0 120 46 0
1.0 56 50 0
1.0 -130 97 0
1.0 -97 124 0
1.0 -119 59 0
1.0 130 -6 0
1.0 -129 80 0
1.0 18 -38 0
1.0 83 -128 0
1.0 37 54 0
1.0 -11 -16 0
1.0 140 -55 0
1.0 114 -18 0
1.0 24 62 0
1.0 2 46 0
1.0 83 98 0
1.0 85 -66 0
1.0 120 -55 0
1.0 -71 94 0
1.0 8 -118 0
1.0 -136 63 0
1.0 125 -11 0
1.0 56 -70 0
1.0 28 -23 0
1.0 -88 47 0
1.0 102 99 0
1.0 -53 14 0
1.0 132 -8 0
1.0 71 125 0
1.0 136 36 0
1.0 106 -49 0
1.0 -71 74 0
1.0 -120 -56 0
1.0 -15 3 0
1.0 -17 73 0
1.0 -81 28 0
1.0 12 139 0
1.0 34 -109 0
1.0 -17 -107 0
1.0 -41 95 0
1.0 -10 52 0
1.0 -55 -73 0
1.0 -6 -77 0
1.0 -104 -73 0
1.0 -72 -23 0
1.0 -131 38 0
1.0 -5 96 0
1.0 50 60 0
1.0 -112 26 0
1.0 -99 -35 0
1.0 111 -35 0
1.0 107 7 0
1.0 29 30 0
1.0 68 -108 0
1.0 -64 -121 0
1.0 41 33 0
1.0 117 37 0
1.0 -133 128 0
1.0 -38 56 0
1.0 -105 -31 0
1.0 35 92 0
1.0 118 -133 0
1.0 -109 39 0
1.0 -72 11 0
1.0 47 100 0
1.0 88 -42 0
1.0 97 59 0
1.0 90 -101 0
1.0 -52 115 0
1.0 -107 -51 0
1.0 -89 127 0
1.0 137 21 0
1.0 -120 128 0
1.0 29 -8 0
1.0 66 81 0
1.0 -42 -101 0
1.0 -75 124 0
1.0 -34 -111 0
1.0 98 -61 0
1.0 -81 71 0
1.0 -59 -81 0
1.0 -88 41 0
1.0 122 119 0
1.0 -80 25 0
1.0 9 100 0
1.0 70 32 0
1.0 -93 27 0
1.0 -98 121 0
1.0 -62 83 0
1.0 123 -36 0
1.0 -15 -50 0
1.0 -75 -104 0
1.0 -63 -24 0
1.0 56 8 0
1.0 35 -4 0
1.0 125 135 0
1.0 77 111 0
1.0 6 77 0
1.0 -126 12 0
1.0 116 83 0
1.0 106 127 0
1.0 134 52 0
1.0 55 70 0
1.0 -65 28 0
1.0 139 -61 0
1.0 85 -25 0
1.0 -139 -121 0
1.0 123 -111 0
1.0 -2 68 0
1.0 -97 132 0
1.0 -12 7 0
1.0 91 -92 0
1.0 12 -42 0
1.0 67 86 0
1.0 66 126 0
1.0 96 -54 0
1.0 122 -120 0
1.0 -111 -117 0
1.0 123 -54 0
1.0 5 60 0
1.0 -102 48 0
1.0 -133 27 0
1.0 -13 -100 0
1.0 13 -124 0
1.0 -103 -74 0
1.0 50 35 0
1.0 -89 -78 0
1.0 -137 -129 0
1.0 -36 84 0
1.0 -111 -79 0
1.0 -38 52 0
1.0 35 -14 0
1.0 -87 -116 0
1.0 10 -128 0
1.0 65 135 0
1.0 123 21 0
1.0 105 -6 0
1.0 84 -132 0
1.0 43 -8 0
1.0 -22 -76 0
1.0 -52 7 0
1.0 134 -20 0
1.0 -71 -121 0
1.0 1 130 0
1.0 -36 131 0
1.0 48 71 0
1.0 -103 8 0
1.0 -83 -45 0
1.0 -9 11 0
1.0 -30 -2 0
1.0 122 -101 0
1.0 -90 -107 0
1.0 97 77 0
1.0 8 -82 0
1.0 89 136 0
1.0 -40 98 0
1.0 108 -63 0
1.0 -64 41 0
1.0 2 -7 0
1.0 -114 -15 0
1.0 -92 -89 0
1.0 30 -135 0
1.0 130 78 0
1.0 -35 131 0
1.0 -53 -129 0
1.0 29 95 0
1.0 -101 -50 0
1.0 65 58 0
1.0 -6 80 0
1.0 74 44 0
1.0 -121 24 0
1.0 14 31 0
1.0 19 15 0
1.0 -109 66 0
1.0 115 58 0
1.0 116 -9 0
1.0 89 30 0
1.0 -74 30 0
1.0 54 39 0
1.0 -70 -87 0
1.0 -101 38 0
1.0 -103 -72 0
1.0 -130 -4 0
1.0 -13 -31 0
1.0 -61 -102 0
1.0 132 69 0
1.0 -108 117 0
1.0 -64 107 0
1.0 -4 -120 0
1.0 52 94 0
1.0 97 -20 0
1.0 51 -93 0
1.0 -54 53 0
1.0 -122 -11 0
1.0 -128 64 0
1.0 -31 111 0
1.0 -90 29 0
1.0 122 -43 0
1.0 63 -49 0
1.0 -1 117 0
1.0 -30 47 0
1.0 -58 51 0
1.0 -115 86 0
1.0 56 31 0
1.0 60 38 0
1.0 -81 49 0
1.0 -97 -27 0
1.0 4 59 0
1.0 105 111 0
1.0 22 -4 0
1.0 90 23 0
1.0 54 -39 0
1.0 77 17 0
1.0 65 135 0
1.0 -22 137 0
1.0 55 129 0
1.0 100 -101 0
1.0 -105 109 0
1.0 132 116 0
1.0 15 -69 0
1.0 -86 34 0
1.0 29 128 0
1.0 -124 8 0
1.0 137 -131 0
1.0 -92 99 0
1.0 -68 52 0
1.0 -28 29 0
1.0 -98 123 0
1.0 17 99 0
1.0 -87 83 0
1.0 -90 -28 0
1.0 19 -25 0
1.0 124 117 0
1.0 -29 137 0
1.0 -26 -75 0
1.0 57 -90 0
1.0 -48 -78 0
1.0 20 -73 0
1.0 100 -31 0
1.0 -56 98 0
1.0 -74 -115 0
1.0 112 -61 0
1.0 -135 116 0
1.0 -65 -6 0
1.0 -84 -103 0
1.0 -35 -30 0
1.0 -61 -129 0
1.0 86 61 0
1.0 -36 105 0
1.0 25 140 0
1.0 -115 124 0
1.0 130 -55 0
1.0 18 118 0
1.0 7 109 0
1.0 97 20 0
1.0 81 -58 0
1.0 -23 45 0
1.0 45 128 0
1.0 112 -137 0
1.0 51 70 0
1.0 -47 69 0
1.0 -37 -29 0
1.0 49 -22 0
1.0 -79 -99 0
1.0 3 88 0
1.0 75 -66 0
1.0 -124 7 0
1.0 -40 -50 0
1.0 31 12 0
1.0 -132 139 0
1.0 -36 -96 0
1.0 -61 53 0
1.0 -61 -44 0
1.0 110 -129 0
1.0 136 47 0
1.0 96 -106 0
1.0 118 -9 0
1.0 -8 14 0
1.0 109 74 0
1.0 127 33 0
1.0 76 121 0
1.0 -109 -108 0
1.0 -14 -5 0
1.0 -111 -2 0
1.0 11 3 0
1.0 16 -38 0
1.0 112 -96 0
1.0 128 52 0
1.0 -32 -49 0
1.0 -17 107 0
1.0 -112 -103 0
1.0 105 -96 0
1.0 -98 -86 0
1.0 -124 -52 0
1.0 7 -112 0
1.0 23 60 0
1.0 108 -27 0
1.0 134 -18 0
1.0 121 -14 0
1.0 109 77 0
1.0 22 51 0
1.0 -102 -138 0
1.0 -110 -13 0
1.0 72 22 0
1.0 48 99 0
1.0 117 -38 0
1.0 51 54 0
1.0 -130 101 0
1.0 11 -126 0
1.0 -124 -116 0
1.0 -129 45 0
1.0 -66 -130 0
1.0 89 124 0
1.0 21 -22 0
1.0 -76 62 0
1.0 -22 35 0
1.0 21 94 0
1.0 -69 87 0
1.0 -132 41 0
1.0 30 -77 0
1.0 60 -46 0
1.0 68 64 0
1.0 126 100 0
1.0 135 6 0
1.0 100 46 0
1.0 -133 -114 0
1.0 14 62 0
1.0 138 71 0
1.0 -116 64 0
1.0 127 -9 0
1.0 -108 -116 0
1.0 -122 -20 0
1.0 -65 134 0
1.0 108 -53 0
1.0 114 -82 0
1.0 13 -45 0
1.0 108 -27 0
1.0 35 78 0
1.0 -53 46 0
1.0 -65 -81 0
1.0 75 83 0
1.0 135 -89 0
1.0 -30 47 0
1.0 92 108 0
1.0 135 63 0
1.0 140 80 0
1.0 -126 136 0
1.0 77 62 0
1.0 4 -87 0
1.0 -35 76 0
1.0 -123 -45 0
1.0 -12 137 0
1.0 59 8 0
1.0 -88 -66 0
1.0 -62 -59 0
1.0 121 -22 0
1.0 -108 62 0
1.0 138 -87 0
1.0 131 33 0
1.0 29 -49 0
1.0 56 43 0
1.0 -108 118 0
1.0 37 58 0
1.0 79 35 0
1.0 97 -122 0
1.0 -68 115 0
1.0 7 129 0
1.0 -37 -69 0
1.0 -111 -130 0
1.0 -108 30 0
1.0 87 135 0
1.0 -30 -21 0
1.0 -2 120 0
1.0 -94 -14 0
1.0 -2 49 0
1.0 -117 -119 0
1.0 108 -84 0
1.0 -113 135 0
1.0 -129 99 0
1.0 119 -14 0
1.0 133 -84 0
1.0 97 -38 0
1.0 -86 42 0
1.0 21 -125 0
1.0 69 37 0
1.0 -32 2 0
1.0 101 -43 0
1.0 56 43 0
1.0 -126 -110 0
1.0 7 -42 0
1.0 83 -36 0
1.0 -21 -25 0
1.0 -62 -14 0
1.0 -16 -89 0
1.0 131 12 0
1.0 -54 115 0
1.0 -84 -90 0
1.0 131 -22 0
1.0 57 -56 0
1.0 81 128 0
1.0 -2 15 0
1.0 -104 -68 0
1.0 -79 -47 0
1.0 22 -95 0
1.0 44 13 0
1.0 -34 -96 0
1.0 12 -5 0
1.0 -132 -54 0
1.0 69 48 0
1.0 -116 2 0
1.0 49 125 0
1.0 79 -78 0
1.0 90 -89 0
1.0 -44 125 0
1.0 129 -103 0
1.0 -16 -100 0
1.0 -8 -123 0
1.0 125 101 0
1.0 -86 83 0
1.0 21 -138 0
1.0 -87 -23 0
1.0 7 -28 0
1.0 -130 53 0
1.0 -12 90 0
1.0 73 66 0
1.0 -27 -40 0
1.0 -122 54 0
1.0 -52 -1 0
1.0 -24 65 0
1.0 92 -34 0
1.0 -86 -2 0
1.0 -91 36 0
1.0 -101 -120 0
1.0 -19 -30 0
1.0 84 -95 0
1.0 -96 -114 0
1.0 39 -121 0
1.0 -15 -34 0
1.0 35 -17 0
1.0 53 34 0
1.0 13 88 0
1.0 117 100 0
1.0 54 33 0
1.0 -6 49 0
1.0 30 137 0
1.0 31 105 0
1.0 121 60 0
1.0 94 -58 0
1.0 -5 -47 0
1.0 6 28 0
1.0 60 98 0
1.0 -6 57 0
1.0 -54 -2 0
1.0 107 -82 0
1.0 -1 -58 0
1.0 116 -26 0
1.0 -72 -57 0
1.0 -85 3 0
1.0 100 -66 0
1.0 123 37 0
1.0 -39 79 0
1.0 -20 127 0
1.0 -44 72 0
1.0 -98 35 0
1.0 -92 99 0
1.0 102 104 0
1.0 29 108 0
1.0 4 27 0
1.0 105 -25 0
1.0 11 140 0
1.0 -71 118 0
1.0 13 -72 0
1.0 -31 -24 0
1.0 127 39 0
1.0 6 79 0
1.0 106 73 0
1.0 98 -100 0
1.0 99 57 0
1.0 35 96 0
1.0 27 115 0
1.0 138 -11 0
1.0 -49 101 0
1.0 40 27 0
1.0 -99 116 0
1.0 75 128 0
1.0 44 -46 0
1.0 -1 120 0
1.0 -94 -137 0
1.0 -7 132 0
1.0 -93 -76 0
1.0 -102 33 0
1.0 -8 -71 0
1.0 -58 -1 0
1.0 47 38 0
1.0 -18 -25 0
1.0 22 18 0
1.0 -10 -139 0
1.0 -75 52 0
1.0 -84 -90 0
1.0 21 -74 0
1.0 74 -8 0
1.0 46 79 0
1.0 104 -102 0
1.0 120 -97 0
1.0 -96 95 0
1.0 6 -45 0
1.0 135 23 0
1.0 -96 73 0
1.0 80 -132 0
1.0 71 37 0
1.0 138 -83 0
1.0 -39 -31 0
1.0 126 -57 0
1.0 -102 -90 0
1.0 -112 120 0
1.0 -52 -63 0
1.0 -55 -106 0
1.0 2 -25 0
1.0 -107 37 0
1.0 68 83 0
1.0 140 -25 0
1.0 114 -125 0
1.0 104 28 0
1.0 90 109 0
1.0 -75 -125 0
1.0 -10 -6 0
1.0 -43 -53 0
1.0 136 -122 0
1.0 -6 -66 0
1.0 50 14 0
1.0 41 -78 0
1.0 -47 -37 0
1.0 22 123 0
1.0 129 133 0
1.0 -46 128 0
1.0 109 -22 0
1.0 -88 -133 0
1.0 7 19 0
1.0 96 40 0
1.0 -77 -32 0
1.0 -14 39 0
1.0 32 -135 0
1.0 -122 -32 0
1.0 54 15 0
1.0 -7 19 0
1.0 37 -8 0
1.0 -47 -97 0
1.0 -129 116 0
1.0 14 70 0
1.0 -64 36 0
1.0 -68 -101 0
1.0 -115 -62 0
1.0 -80 -119 0
1.0 -126 55 0
1.0 12 -102 0
1.0 77 -98 0
1.0 -27 -5 0
1.0 -40 -119 0
1.0 -79 133 0
1.0 54 -68 0
1.0 -46 29 0
1.0 83 -79 0
1.0 -40 -80 0
1.0 37 94 0
1.0 98 -62 0
1.0 -41 -10 0
1.0 2 51 0
1.0 119 65 0
1.0 94 20 0
1.0 -99 -120 0
1.0 -60 -81 0
1.0 35 -41 0
1.0 -103 32 0
1.0 -42 93 0
1.0 -3 -12 0
1.0 77 8 0
1.0 28 -61 0
1.0 -40 -54 0
1.0 135 98 0
1.0 138 -74 0
1.0 -106 11 0
1.0 103 -84 0
1.0 -96 8 0
1.0 16 91 0
1.0 12 128 0
1.0 42 13 0
1.0 110 -65 0
1.0 139 -87 0
1.0 -97 30 0
1.0 114 20 0
1.0 -27 110 0
1.0 -61 -23 0
1.0 -11 115 0
1.0 -127 -134 0
1.0 59 13 0
1.0 100 131 0
1.0 -20 -130 0
1.0 9 138 0
1.0 -108 22 0
1.0 -45 24 0
1.0 -138 -84 0
1.0 -78 -54 0
1.0 67 2 0
1.0 -133 73 0
1.0 62 -55 0
1.0 -53 67 0
1.0 88 -44 0
1.0 67 10 0
1.0 94 13 0
1.0 67 -127 0
1.0 129 -80 0
1.0 -12 -99 0
1.0 14 138 0
1.0 -64 110 0
1.0 14 -137 0
1.0 6 -51 0
1.0 -64 -53 0
1.0 -39 17 0
1.0 96 -1 0
1.0 100 -1 0
1.0 139 46 0
1.0 -15 127 0
1.0 -124 -78 0
1.0 -129 114 0
1.0 26 77 0
1.0 -93 24 0
1.0 25 -100 0
1.0 -101 -57 0
1.0 102 -137 0
1.0 124 -96 0
1.0 -34 114 0
1.0 -87 -43 0
1.0 120 -116 0
1.0 -140 128 0
1.0 88 137 0
1.0 53 104 0
1.0 -100 -29 0
1.0 124 137 0
1.0 110 5 0
1.0 47 114 0
1.0 -89 -65 0
1.0 -53 -80 0
1.0 76 -119 0
1.0 82 55 0
1.0 -84 134 0
1.0 -130 -33 0
1.0 37 -124 0
1.0 -97 45 0
1.0 -109 69 0
1.0 8 -105 0
1.0 -83 68 0
1.0 123 74 0
1.0 -67 49 0
1.0 82 -78 0
1.0 61 31 0
1.0 75 32 0
1.0 101 -57 0
1.0 22 -85 0
1.0 -13 -122 0
1.0 55 -53 0
1.0 102 54 0
1.0 131 53 0
1.0 83 82 0
1.0 114 -133 0
1.0 49 -126 0
1.0 70 -93 0
1.0 -74 -22 0
1.0 -75 139 0
1.0 -52 8 0
1.0 -61 98 0
1.0 40 23 0
1.0 -15 82 0
1.0 -67 -129 0
1.0 -81 28 0
1.0 49 -17 0
1.0 15 113 0
1.0 -121 97 0
1.0 55 -61 0
1.0 -83 -65 0
1.0 6 -55 0
1.0 43 -15 0
1.0 -42 -8 0
1.0 -24 140 0
1.0 -113 -92 0
1.0 -49 -71 0
1.0 132 -38 0
1.0 102 -24 0
1.0 78 -52 0
1.0 -66 -108 0
1.0 115 -101 0
1.0 100 -132 0
1.0 84 -139 0
1.0 -70 20 0
1.0 -57 10 0
1.0 -34 -27 0
1.0 -79 24 0
1.0 -131 -55 0
1.0 -16 -30 0
1.0 21 -138 0
1.0 -136 73 0
1.0 -93 49 0
1.0 59 -122 0
1.0 8 -12 0
1.0 -35 15 0
1.0 -70 -62 0
1.0 91 -92 0
1.0 -89 -107 0
1.0 40 -31 0
1.0 80 -136 0
1.0 -117 -27 0
1.0 -38 -13 0
1.0 -27 -21 0
1.0 82 87 0
1.0 38 -100 0
1.0 -67 -79 0
1.0 -110 80 0
1.0 75 98 0
1.0 125 136 0
1.0 -8 107 0
1.0 -127 52 0
1.0 -138 31 0
1.0 131 105 0
1.0 44 91 0
1.0 31 -120 0
1.0 77 107 0
1.0 -103 -53 0
1.0 20 38 0
1.0 -89 -135 0
1.0 -26 35 0
1.0 -139 1 0
1.0 92 -95 0
1.0 -74 116 0
1.0 -83 105 0
1.0 18 15 0
1.0 52 -18 0
1.0 -13 116 0
1.0 10 66 0
1.0 67 126 0
1.0 81 105 0
1.0 80 88 0
1.0 53 96 0
1.0 -110 80 0
1.0 98 -9 0
1.0 124 -106 0
1.0 31 -60 0
1.0 -45 -53 0
1.0 -17 -116 0
1.0 -64 -24 0
1.0 120 -45 0
1.0 -124 -12 0
1.0 20 131 0
1.0 -97 -56 0
1.0 -116 139 0
1.0 51 60 0
1.0 36 -5 0
1.0 -28 3 0
1.0 -47 120 0
1.0 -131 67 0
1.0 58 20 0
1.0 76 10 0
1.0 -9 87 0
1.0 -7 77 0
1.0 82 -11 0
1.0 -13 75 0
1.0 -55 74 0
1.0 140 60 0
1.0 -80 68 0
1.0 78 -74 0
1.0 20 139 0
1.0 76 133 0
1.0 -4 69 0
1.0 -3 103 0
1.0 -36 25 0
1.0 -85 17 0
1.0 85 25 0
1.0 -99 -106 0
1.0 104 115 0
1.0 108 -72 0
1.0 -140 41 0
1.0 3 64 0
1.0 -89 22 0
1.0 38 -27 0
1.0 52 95 0
1.0 -60 112 0
1.0 87 131 0
1.0 62 117 0
1.0 17 12 0
1.0 76 123 0
1.0 4 131 0
1.0 17 113 0
1.0 -67 -27 0
1.0 138 -65 0
1.0 -56 -71 0
1.0 47 22 0
1.0 -33 -101 0
1.0 -83 -140 0
1.0 -131 48 0
1.0 -20 -10 0
1.0 -36 13 0
1.0 -77 -82 0
1.0 -13 115 0
1.0 -136 7 0
1.0 -107 65 0
1.0 -64 128 0
1.0 36 123 0
1.0 133 137 0
1.0 9 -74 0
1.0 -16 39 0
1.0 -13 45 0
1.0 51 69 0
1.0 133 33 0
1.0 -21 64 0
1.0 -47 32 0
1.0 29 113 0
1.0 -46 128 0
1.0 -26 58 0
1.0 103 37 0
1.0 105 -83 0
1.0 116 -100 0
1.0 23 126 0
1.0 -18 24 0
1.0 -136 35 0
1.0 -23 64 0
1.0 -122 -52 0
1.0 -89 133 0
1.0 76 130 0
1.0 89 -25 0
1.0 10 100 0
1.0 -123 -9 0
1.0 44 15 0
1.0 -78 122 0
1.0 34 -60 0
1.0 52 -102 0
1.0 91 46 0
1.0 71 -85 0
1.0 -45 50 0
1.0 59 -40 0
1.0 54 -26 0
1.0 7 3 0
1.0 62 -55 0
1.0 -16 -58 0
1.0 103 138 0
1.0 -83 -14 0
1.0 64 -80 0
1.0 -120 21 0
1.0 46 114 0
1.0 -117 75 0
1.0 130 116 0
1.0 -33 -111 0
1.0 109 115 0
1.0 129 1 0
1.0 81 53 0
1.0 -73 -121 0
1.0 95 -117 0
1.0 -52 124 0
1.0 99 -120 0
1.0 -91 16 0
1.0 -131 -14 0
1.0 15 -7 0
1.0 59 -67 0
1.0 -47 107 0
1.0 -84 -140 0
1.0 123 -39 0
1.0 -19 -81 0
1.0 96 -59 0
1.0 72 -136 0
1.0 2 98 0
1.0 24 56 0
1.0 -23 -20 0
1.0 -20 2 0
1.0 -40 136 0
1.0 76 17 0
1.0 -75 53 0
1.0 -48 44 0
1.0 -1 134 0
1.0 -49 -20 0
1.0 39 25 0
1.0 26 137 0
1.0 -132 5 0
1.0 -21 -10 0
1.0 -62 -76 0
1.0 119 -56 0
1.0 50 -127 0
1.0 6 97 0
1.0 -121 66 0
1.0 -63 23 0
1.0 -28 54 0
1.0 64 -79 0
1.0 -14 -107 0
1.0 -22 -113 0
1.0 99 -115 0
1.0 72 59 0
1.0 124 111 0
1.0 -134 130 0
1.0 44 -81 0
1.0 -19 72 0
1.0 38 46 0
1.0 -18 -137 0
1.0 -112 20 0
1.0 -78 89 0
1.0 -59 15 0
1.0 -5 68 0
1.0 8 140 0
1.0 72 -106 0
1.0 12 84 0
1.0 81 20 0
1.0 -39 -85 0
1.0 33 -52 0
1.0 67 -6 0
1.0 -74 -75 0
1.0 -75 133 0
1.0 -99 -26 0
1.0 -110 4 0
1.0 -23 3 0
1.0 87 -59 0
1.0 -111 76 0
1.0 -82 73 0
1.0 -8 -86 0
1.0 -78 64 0
1.0 89 63 0
1.0 -67 -4 0
1.0 7 -72 0
1.0 -131 -49 0
1.0 -125 3 0
1.0 -76 -105 0
1.0 50 -38 0
1.0 101 112 0
1.0 -34 -30 0
1.0 34 78 0
1.0 -9 -60 0
1.0 -109 -67 0
1.0 69 98 0
1.0 -62 -101 0
1.0 -138 -111 0
1.0 82 -123 0
1.0 -12 116 0
1.0 -53 125 0
1.0 45 79 0
1.0 -5 -21 0
1.0 -118 125 0
1.0 85 -25 0
1.0 135 -109 0
1.0 92 -48 0
1.0 23 -128 0
1.0 -112 93 0
1.0 31 57 0
1.0 -77 135 0
1.0 -119 46 0
1.0 70 104 0
1.0 73 46 0
1.0 -93 -53 0
1.0 40 134 0
1.0 87 -47 0
1.0 104 57 0
1.0 -52 120 0
1.0 -26 -48 0
1.0 12 -98 0
1.0 -4 -20 0
1.0 -72 -94 0
1.0 -87 123 0
1.0 29 -12 0
1.0 69 -22 0
1.0 2 126 0
1.0 -34 102 0
1.0 -60 140 0
1.0 19 -96 0
1.0 49 -91 0
1.0 73 -46 0
1.0 -58 -38 0
1.0 -60 125 0
1.0 -111 114 0
1.0 75 -67 0
1.0 67 -37 0
1.0 132 77 0
1.0 28 -98 0
1.0 4 63 0
1.0 101 16 0
1.0 -140 -10 0
1.0 -123 27 0
1.0 94 23 0
1.0 -60 110 0
1.0 -47 -140 0
1.0 97 -125 0
1.0 48 96 0
1.0 111 -66 0
1.0 -75 109 0
1.0 -135 -56 0
1.0 -78 -28 0
1.0 138 72 0
1.0 -72 137 0
1.0 -122 10 0
1.0 105 -8 0
1.0 73 66 0
1.0 34 126 0
1.0 -41 -42 0
1.0 -69 85 0
1.0 -17 -23 0
1.0 -20 86 0
1.0 96 104 0
1.0 -111 67 0
1.0 132 41 0
1.0 26 118 0
1.0 19 -32 0
1.0 116 -20 0
1.0 -42 122 0
1.0 68 56 0
1.0 -19 -91 0
1.0 18 79 0
1.0 119 85 0
1.0 62 -90 0
1.0 121 -114 0
1.0 -134 40 0
1.0 -22 -28 0
1.0 -83 -16 0
1.0 -107 -56 0
1.0 -134 -124 0
1.0 -68 -28 0
1.0 117 -46 0
1.0 20 96 0
1.0 136 1 0
1.0 -29 -2 0
1.0 -18 -78 0
1.0 -133 -23 0
1.0 -6 -100 0
1.0 128 -74 0
1.0 119 -132 0
1.0 87 -115 0
1.0 -115 56 0
1.0 -58 -64 0
1.0 2 -47 0
1.0 -69 -25 0
1.0 125 -78 0
1.0 -11 -69 0
1.0 -60 139 0
1.0 -113 -136 0
1.0 -52 -47 0
1.0 111 -65 0
1.0 -111 101 0
1.0 -126 -86 0
1.0 -23 120 0
1.0 49 -20 0
1.0 -19 -9 0
1.0 -5 63 0
1.0 110 -29 0
1.0 94 68 0
1.0 -29 17 0
1.0 -102 -76 0
1.0 55 -67 0
1.0 -87 -41 0
1.0 -50 46 0
1.0 -109 -34 0
1.0 63 135 0
1.0 -63 -69 0
1.0 -86 44 0
1.0 120 89 0
1.0 -16 -51 0
1.0 92 68 0
1.0 114 -22 0
1.0 56 -25 0
1.0 -20 -37 0
1.0 105 74 0
1.0 -118 -138 0
1.0 -86 -130 0
1.0 40 -127 0
1.0 -55 130 0
1.0 -12 46 0
1.0 71 -129 0
1.0 25 -39 0
1.0 113 -64 0
1.0 61 137 0
1.0 -127 36 0
1.0 23 -32 0
1.0 -21 7 0
1.0 -53 -75 0
1.0 -64 -5 0
1.0 -44 104 0
1.0 -27 -118 0
1.0 -115 -12 0
1.0 -48 -63 0
1.0 94 -2 0
1.0 9 114 0
1.0 49 -107 0
1.0 112 116 0
1.0 79 -139 0
1.0 117 -137 0
1.0 9 8 0
1.0 -70 38 0
1.0 -40 136 0
1.0 -110 4 0
1.0 -111 -13 0
1.0 -128 51 0
1.0 49 128 0
1.0 -125 -84 0
1.0 91 28 0
1.0 65 -37 0
1.0 33 40 0
1.0 44 123 0
1.0 -135 -10 0
1.0 60 -52 0
1.0 -40 80 0
1.0 24 -110 0
1.0 -137 68 0
1.0 105 -38 0
1.0 -77 -39 0
1.0 -21 17 0
1.0 -27 -89 0
1.0 1 48 0
1.0 127 49 0
1.0 -18 83 0
1.0 -10 -120 0
1.0 -17 -101 0
1.0 -140 108 0
1.0 125 67 0
1.0 -16 35 0
1.0 82 12 0
1.0 -60 -121 0
1.0 -63 -64 0
1.0 44 27 0
1.0 127 -17 0
1.0 124 -87 0
1.0 -13 42 0
1.0 77 -44 0
1.0 99 -87 0
1.0 25 -86 0
1.0 -37 74 0
1.0 119 -52 0
1.0 -65 35 0
1.0 41 -88 0
1.0 67 52 0
1.0 -95 37 0
1.0 -123 98 0
1.0 -43 -134 0
1.0 67 88 0
1.0 139 50 0
1.0 -85 -20 0
1.0 107 97 0
1.0 9 -87 0
1.0 124 -125 0
1.0 -82 -9 0
1.0 3 70 0
1.0 -17 64 0
1.0 -114 16 0
1.0 35 11 0
1.0 107 -111 0
1.0 -58 68 0
1.0 52 -94 0
1.0 -103 -120 0
1.0 49 42 0
1.0 -106 -9 0
1.0 -25 17 0
1.0 27 -40 0
1.0 -11 92 0
1.0 -20 -45 0
1.0 139 -114 0
1.0 94 43 0
1.0 85 101 0
1.0 -109 -6 0
1.0 22 125 0
1.0 25 111 0
1.0 -63 -8 0
1.0 53 70 0
1.0 43 -78 0
1.0 -121 78 0
1.0 -38 64 0
1.0 70 -102 0
1.0 -87 -52 0
1.0 23 -40 0
1.0 48 -107 0
1.0 36 -41 0
1.0 -119 -24 0
1.0 102 -72 0
1.0 135 139 0
1.0 101 7 0
1.0 59 -14 0
1.0 54 -23 0
1.0 129 53 0
1.0 -93 -72 0
1.0 95 37 0
1.0 108 -54 0
1.0 52 62 0
1.0 68 -42 0
1.0 56 -76 0
1.0 98 -92 0
1.0 -5 -130 0
1.0 62 75 0
1.0 -111 -59 0
1.0 113 128 0
1.0 49 -67 0
1.0 -108 95 0
1.0 -31 -28 0
1.0 -120 -61 0
1.0 -51 -47 0
1.0 -121 -111 0
1.0 30 59 0
1.0 47 -70 0
1.0 -136 -62 0
1.0 -16 33 0
1.0 61 120 0
1.0 40 -110 0
1.0 16 -107 0
1.0 -78 -49 0
1.0 -108 116 0
1.0 -45 133 0
1.0 54 39 0
1.0 -71 -133 0
1.0 112 10 0
1.0 -120 -56 0
1.0 -23 -131 0
1.0 77 66 0
1.0 -34 53 0
1.0 -21 138 0
1.0 -3 -10 0
1.0 -126 -121 0
1.0 -12 117 0
1.0 -78 -109 0
1.0 99 49 0
1.0 -114 71 0
1.0 123 45 0
1.0 43 114 0
1.0 124 -51 0
1.0 -32 6 0
1.0 -123 79 0
1.0 48 58 0
1.0 106 -53 0
1.0 -123 -130 0
1.0 -35 -121 0
1.0 -94 -28 0
1.0 79 -22 0
1.0 28 10 0
1.0 -89 -123 0
1.0 40 92 0
1.0 -4 -44 0
1.0 -34 33 0
1.0 14 -58 0
1.0 86 127 0
1.0 -9 91 0
1.0 101 8 0
1.0 130 117 0
1.0 68 -47 0
1.0 91 -121 0
1.0 14 9 0
1.0 -66 56 0
1.0 43 39 0
1.0 -130 -30 0
1.0 -37 133 0
1.0 109 43 0
1.0 -89 90 0
1.0 70 -27 0
1.0 -35 -74 0
1.0 -130 106 0
1.0 -4 -7 0
1.0 -36 -30 0
1.0 -22 -81 0
1.0 123 -13 0
1.0 -102 136 0
